SYSTEM = SiGe
LREAL = Auto
LWAVE = .FALSE.
LCHARG = .FALSE.
ADDGRID = .TRUE.
ISPIN = 1
LASPH = .TRUE.
ENCUT = 400
PREC = Accurate
EDIFF = 1e-5
NELM = 120
NELMIN = 5
ALGO = Normal
IBRION = 2
NSW = 60
ISIF = 3
EDIFFG = -0.02
ISMEAR = 0
SIGMA = 0.2
NCORE = 4

