ALGO = FAST
LCHARG = .FALSE.
SIGMA = 0.2
PREC = Accurate
ISIF = 3
IBRION = 2
ISPIND = 1
ISMEAR = -5
ISPIN = 1
EDIFF = 1e-06
LWAVE = .FALSE.
NPAR = 2
ENMAX = 400.0
NSW = 61
